;; sequence(s): A27578
;; terms: 30 55 90 135 190 255 330 415 510 615 730 855 990 1135 1290 1455 1630 1815 2010 2215
;; small program: loop2((2 + x) * (2 + y), 1 + 2, 2, x, x)
;; fast program: (1 + (2 + 2)) * (2 + ((2 + x) * (2 + x)))
(set-logic UFNIA)
(declare-fun f0 (Int Int) Int)
(declare-fun g0 () Int)
(declare-fun h0 () Int)
(declare-fun i0 (Int) Int)
(declare-fun j0 (Int) Int)
(declare-fun u0 (Int Int Int) Int)
(declare-fun v0 (Int Int Int) Int)
(declare-fun w0 (Int) Int)
(declare-fun small (Int) Int)
(declare-fun fast (Int) Int)
(assert (forall ((x Int) (y Int)) (= (f0 x y) (* (+ 2 x) (+ 2 y)))))
(assert (= g0 (+ 1 2)))
(assert (= h0 2))
(assert (forall ((x Int)) (= (i0 x) x)))
(assert (forall ((x Int)) (= (j0 x) x)))
(assert (forall ((x Int) (y Int) (z Int)) (= (u0 x y z) (ite (<= x 0) y (f0 (u0 (- x 1) y z) (v0 (- x 1) y z))))))
(assert (forall ((x Int) (y Int) (z Int)) (= (v0 x y z) (ite (<= x 0) z g0))))
(assert (forall ((x Int)) (= (w0 x) (u0 h0 (i0 x) (j0 x)))))
(assert (forall ((x Int)) (= (small x) (w0 x))))
(assert (forall ((x Int)) (= (fast x) (* (+ 1 (+ 2 2)) (+ 2 (* (+ 2 x) (+ 2 x)))))))
(assert (exists ((c Int)) (and (>= c 0) (not (= (small c) (fast c))))))
(check-sat)
